POSCAR
1.0000000
    17.5487504     0.0000000     0.0000000
     0.0000000    17.3717529     0.0000000
     0.0000000     0.0000000    15.9997724
B N 
55 56 
Direct
     0.0713974     0.0834749     0.3739880
     0.1431335     0.2090071     0.3738941
     0.0720151     0.3342327     0.3743454
     0.1458797     0.4589247     0.3746403
     0.0726308     0.5830462     0.3745791
     0.1439353     0.7074145     0.3748406
     0.0715626     0.8324494     0.3741450
     0.1427376     0.9578753     0.3740070
     0.2139996     0.0833765     0.3736905
     0.2857975     0.2082474     0.3723893
     0.2158946     0.3342609     0.3734661
     0.2931828     0.4589099     0.3742068
     0.2181414     0.5829649     0.3759473
     0.2875903     0.7076346     0.3777074
     0.2145982     0.8325840     0.3746843
     0.2853139     0.9583090     0.3740545
     0.3566319     0.0830467     0.3725411
     0.4282089     0.2067048     0.3700590
     0.3584755     0.3325250     0.3708771
     0.4432547     0.4546124     0.3706058
     0.3641170     0.5827387     0.3825767
     0.4298883     0.7118774     0.3852601
     0.3571971     0.8341475     0.3764547
     0.4282500     0.9591363     0.3746205
     0.5000004     0.0829588     0.3720210
     0.5717915     0.2067047     0.3700590
     0.5000001     0.3288816     0.3685194
     0.5567453     0.4546124     0.3706057
     0.5701119     0.7118776     0.3852600
     0.5000003     0.8360992     0.3799182
     0.5717506     0.9591364     0.3746205
     0.6433685     0.0830466     0.3725412
     0.7142026     0.2082472     0.3723893
     0.6415246     0.3325247     0.3708771
     0.7068171     0.4589097     0.3742068
     0.6358830     0.5827388     0.3825766
     0.7124098     0.7076348     0.3777073
     0.6428031     0.8341477     0.3764546
     0.7146861     0.9583092     0.3740545
     0.7860002     0.0833765     0.3736906
     0.8568662     0.2090070     0.3738941
     0.7841053     0.3342606     0.3734661
     0.8541203     0.4589245     0.3746403
     0.7818586     0.5829649     0.3759472
     0.8560646     0.7074147     0.3748405
     0.7854017     0.8325842     0.3746842
     0.8572620     0.9578755     0.3740070
     0.9286023     0.0834750     0.3739880
     0.9999998     0.2090003     0.3741491
     0.9279847     0.3342326     0.3743454
     1.0000000     0.4588628     0.3745596
     0.9273692     0.5830462     0.3745790
     0.9999999     0.7074654     0.3742626
     0.9284372     0.8324494     0.3741451
     0.9999999     0.9578898     0.3740132
     0.1427840     0.1254317     0.3739071
     0.0716485     0.2507762     0.3741750
     0.1442545     0.3756623     0.3743032
     0.0729041     0.4998651     0.3746190
     0.1451674     0.6240592     0.3748964
     0.0718964     0.7489469     0.3742547
     0.1429895     0.8742962     0.3740847
     0.0713817     0.9998407     0.3739781
     0.2854229     0.1249302     0.3729975
     0.2148319     0.2506956     0.3734540
     0.2883323     0.3755581     0.3726290
     0.2194088     0.4997749     0.3751199
     0.2906469     0.6239943     0.3786655
     0.2155072     0.7490139     0.3754379
     0.2855802     0.8750130     0.3747221
     0.2139408     0.9999365     0.3739930
     0.4282452     0.1239356     0.3712363
     0.3574125     0.2491731     0.3707248
     0.4304329     0.3724086     0.3692050
     0.3690633     0.4992943     0.3753974
     0.4330775     0.6293054     0.3928838
     0.3579015     0.7509125     0.3783735
     0.4282637     0.8763195     0.3768241
     0.3566271     1.0000492     0.3735572
     0.5717541     0.1239357     0.3712363
     0.4999997     0.2469004     0.3688522
     0.5695669     0.3724088     0.3692049
     0.5669226     0.6293054     0.3928838
     0.4999999     0.7538812     0.3862545
     0.5717359     0.8763193     0.3768240
     0.4999997     1.0001312     0.3740403
     0.7145771     0.1249303     0.3729975
     0.6425872     0.2491734     0.3707248
     0.7116676     0.3755585     0.3726290
     0.6309367     0.4992944     0.3753974
     0.7093531     0.6239942     0.3786654
     0.6420984     0.7509123     0.3783734
     0.7144198     0.8750128     0.3747220
     0.6433726     1.0000490     0.3735573
     0.8572164     0.1254317     0.3739072
     0.7851682     0.2506959     0.3734540
     0.8557456     0.3756626     0.3743033
     0.7805912     0.4997750     0.3751199
     0.8548325     0.6240591     0.3748963
     0.7844929     0.7490137     0.3754378
     0.8570107     0.8742962     0.3740847
     0.7860595     0.9999364     0.3739930
     1.0000002     0.1254156     0.3740920
     0.9283518     0.2507763     0.3741750
     1.0000001     0.3755973     0.3745321
     0.9270958     0.4998652     0.3746190
     1.0000000     0.6241401     0.3744458
     0.9281037     0.7489468     0.3742547
     1.0000001     0.8742765     0.3741525
     0.9286186     0.9998406     0.3739781
     0.5000000     0.5913114     0.4151489
