POSCAR
1.0000000
    15.4664149     0.0000000     0.0000000
     0.0000000    16.0731624     0.0000000
     0.0000000     0.0000000    20.2558223
Si C SI c 
236 236 3 3 
Direct
     0.0000169     0.1111720     0.8752760
    -0.0000192     0.4444423     0.8752669
    -0.0000445     0.7778534     0.8753415
     0.2000365     0.1110478     0.8752841
     0.1996800     0.4442658     0.8754356
     0.1998412     0.7778617     0.8754149
     0.3999943     0.1110307     0.8753020
     0.3999900     0.4439631     0.8760811
     0.3999934     0.7781271     0.8754215
     0.5999721     0.1110526     0.8752858
     0.6003227     0.4442733     0.8754367
     0.6001656     0.7778651     0.8754161
     0.7999807     0.1111652     0.8752729
     0.8000155     0.4444357     0.8752625
     0.8000415     0.7778460     0.8753385
     0.1000136     0.2777862     0.8752535
     0.0998666     0.6112358     0.8754181
     0.0999763     0.9444752     0.8753075
     0.3000204     0.2776091     0.8753977
     0.2995506     0.6113500     0.8760937
     0.3000088     0.9444256     0.8752633
     0.4999724     0.2776170     0.8754011
     0.5004438     0.6113561     0.8760948
     0.4999872     0.9444313     0.8752658
     0.6999927     0.2777842     0.8752505
     0.7001410     0.6112323     0.8754154
     0.7000329     0.9444702     0.8753056
     0.8999949     0.2778129     0.8752509
     0.8999950     0.6111820     0.8753202
     0.8999955     0.9445177     0.8752954
     0.0000681     0.0000633     0.7502361
     0.0001288     0.3333873     0.7501569
     0.0000255     0.6667825     0.7502713
     0.2002284    -0.0002878     0.7502309
     0.2002243     0.3340041     0.7502540
     0.1997611     0.6668165     0.7505110
     0.3999945    -0.0001990     0.7501633
     0.3999886     0.3330807     0.7504767
     0.5997802    -0.0002865     0.7502332
     0.5997753     0.3340100     0.7502543
     0.6002354     0.6668193     0.7505105
     0.7999303     0.0000587     0.7502339
     0.7998670     0.3333850     0.7501543
     0.7999714     0.6667776     0.7502685
     0.1002582     0.1668632     0.7502311
     0.1005907     0.4997394     0.7503098
     0.0999849     0.8332422     0.7502534
     0.3001087     0.1665985     0.7502207
     0.3005248     0.8328055     0.7502615
     0.4998820     0.1666028     0.7502246
     0.4994664     0.8328066     0.7502630
     0.6997475     0.1668636     0.7502292
     0.6994080     0.4997428     0.7503054
     0.7000215     0.8332376     0.7502515
     0.8999948     0.1667396     0.7502059
     0.8999962     0.4998748     0.7502784
     0.8999951     0.8333804     0.7502296
     0.1000095     0.0554959     0.6252042
     0.1004743     0.3891282     0.6249693
     0.1001167     0.7221503     0.6250610
     0.3000299     0.0553818     0.6251450
     0.3011191     0.3903083     0.6245901
     0.3006166     0.7205698     0.6246187
     0.4999688     0.0553738     0.6251480
     0.4988776     0.3902980     0.6245870
     0.4993602     0.7205521     0.6246148
     0.6999999     0.0555007     0.6252036
     0.6995322     0.3891292     0.6249678
     0.6998885     0.7221557     0.6250592
     0.8999950     0.0555987     0.6252099
     0.8999960     0.3889693     0.6251324
     0.8999934     0.7222664     0.6251698
     0.0000905     0.2223014     0.6251740
     0.0000429     0.5557019     0.6250913
    -0.0000199     0.8888788     0.6251926
     0.2001099     0.2221256     0.6251035
     0.2019084     0.5558391     0.6245957
     0.1999198     0.8888051     0.6251127
     0.3999944     0.2223012     0.6250414
     0.3999998     0.8882973     0.6249733
     0.5998953     0.2221193     0.6251061
     0.5981134     0.5558405     0.6245979
     0.6000920     0.8887982     0.6251152
     0.7999071     0.2223086     0.6251713
     0.7999557     0.5557069     0.6250881
     0.8000172     0.8888859     0.6251896
     0.4999550     0.1667526     0.5002392
     0.4992614     0.5004357     0.5007846
     0.4997809     0.8329801     0.5003484
     0.6999135     0.1667502     0.5002788
     0.6995900     0.5000071     0.5003275
     0.6999099     0.8332695     0.5002313
     0.8999955     0.1667675     0.5002532
     0.8999970     0.5000453     0.5002645
     0.8999951     0.8333269     0.5002330
     0.0000293     0.0000288     0.5002503
     0.0001301     0.3334698     0.5002721
     0.0000949     0.6666430     0.5002280
     0.2000561    -0.0000530     0.5002655
     0.2002185     0.3337226     0.5003604
     0.2003184     0.6665026     0.5002119
     0.3999960    -0.0001560     0.5002622
     0.3999935     0.3337276     0.5002281
     0.3999895     0.6658015     0.5006713
     0.5999536    -0.0000561     0.5002673
     0.5997909     0.3337187     0.5003611
     0.5996907     0.6664999     0.5002118
     0.7999681     0.0000328     0.5002478
     0.7998690     0.3334736     0.5002700
     0.7999022     0.6666468     0.5002253
     0.1000959     0.1667480     0.5002796
     0.1004230     0.5000048     0.5003292
     0.1000993     0.8332672     0.5002337
     0.3000418     0.1667568     0.5002366
     0.3007429     0.5004410     0.5007934
     0.3002167     0.8329858     0.5003472
     0.0000288     0.1111650     0.3753225
     0.0000815     0.4445349     0.3753704
     0.0000248     0.7777762     0.3753062
     0.2000345     0.1111173     0.3753301
     0.1999666     0.4444297     0.3751650
     0.2000662     0.7777185     0.3753212
     0.3999952     0.1110907     0.3753354
     0.3999945     0.4445192     0.3753558
     0.3999951     0.7778175     0.3751594
     0.5999750     0.1111219     0.3753318
     0.6000454     0.4444335     0.3751645
     0.5999442     0.7777229     0.3753221
     0.7999689     0.1111578     0.3753199
     0.7999171     0.4445275     0.3753681
     0.7999731     0.7777689     0.3753033
     0.1001109     0.2778679     0.3753694
     0.1000864     0.6111056     0.3753214
     0.1000323     0.9444334     0.3753153
     0.3000277     0.2778622     0.3753305
     0.3000342     0.6110811     0.3753324
     0.3000076     0.9443282     0.3753668
     0.4999693     0.2778696     0.3753330
     0.4999615     0.6110898     0.3753349
     0.4999904     0.9443352     0.3753690
     0.6998994     0.2778632     0.3753684
     0.6999237     0.6111003     0.3753193
     0.6999774     0.9444289     0.3753133
     0.8999957     0.2778703     0.3753469
     0.8999953     0.6111241     0.3753258
     0.8999952     0.9444609     0.3753034
     0.0000104    -0.0000183     0.2503207
     0.0000265     0.3333349     0.2503534
     0.0000087     0.6666352     0.2503349
     0.2000212    -0.0000430     0.2503357
     0.2000310     0.3332805     0.2502867
     0.2000084     0.6666367     0.2503401
     0.3999951    -0.0000588     0.2503570
     0.3999949     0.3333181     0.2503501
     0.3999947     0.6666178     0.2503422
     0.5999885    -0.0000405     0.2503373
     0.5999789     0.3332828     0.2502885
     0.6000014     0.6666389     0.2503419
     0.7999873    -0.0000224     0.2503179
     0.7999713     0.3333307     0.2503507
     0.7999890     0.6666311     0.2503319
     0.1000260     0.1666630     0.2503359
     0.0999918     0.5000120     0.2502913
     0.1000214     0.8332992     0.2503286
     0.3000032     0.1666487     0.2503379
     0.3000159     0.4999821     0.2503403
     0.2999644     0.8332946     0.2502873
     0.4999944     0.1666527     0.2503404
     0.4999812     0.4999864     0.2503428
     0.5000332     0.8332986     0.2502898
     0.6999839     0.1666605     0.2503340
     0.7000185     0.5000093     0.2502891
     0.6999886     0.8332967     0.2503264
     0.8999952     0.1666599     0.2503260
     0.8999951     0.4999810     0.2503491
     0.8999952     0.8333060     0.2503205
     0.1000109     0.0555398     0.1253349
     0.0999939     0.3888616     0.1253497
     0.0999659     0.7222289     0.1253863
     0.2999991     0.0555317     0.1253480
     0.2999948     0.3888432     0.1253969
     0.2999716     0.7222265     0.1253957
     0.4999983     0.0555244     0.1253508
     0.5000027     0.3888359     0.1253997
     0.5000255     0.7222188     0.1253987
     0.6999988     0.0555444     0.1253329
     0.7000163     0.3888662     0.1253477
     0.7000436     0.7222334     0.1253843
     0.8999952     0.0555405     0.1253377
     0.8999953     0.3888623     0.1253401
     0.8999952     0.7222137     0.1253582
     0.0000018     0.2221993     0.1253379
    -0.0000252     0.5555414     0.1253363
    -0.0000038     0.8888799     0.1253495
     0.2000012     0.2221842     0.1253320
     0.1999747     0.5555564     0.1253967
     0.1999866     0.8888882     0.1253319
     0.3999951     0.2221605     0.1253870
     0.3999949     0.5555374     0.1254064
     0.3999947     0.8888822     0.1253513
     0.6000086     0.2221797     0.1253336
     0.6000351     0.5555516     0.1253982
     0.6000224     0.8888833     0.1253335
     0.7999960     0.2222067     0.1253349
     0.8000232     0.5555489     0.1253332
     0.8000014     0.8888872     0.1253464
     0.5000073     0.1665947     0.0003360
     0.5000583     0.4999851     0.0005706
     0.5000809     0.8333850     0.0003552
     0.6999991     0.1666701     0.0002887
     0.7000847     0.5000732     0.0003552
     0.7000682     0.8334089     0.0003424
     0.8999952     0.1666952     0.0002973
     0.8999951     0.5000407     0.0002926
     0.8999951     0.8333970     0.0003315
    -0.0000094     0.0000438     0.0003097
     0.0000085     0.3333545     0.0002893
    -0.0000547     0.6667356     0.0003498
     0.1999886     0.0000015     0.0002994
     0.2000057     0.3332621     0.0003543
     0.1998288     0.6667938     0.0004926
     0.3999949    -0.0000259     0.0002999
     0.3999947     0.3331514     0.0004892
     0.3999952     0.6667471     0.0005689
     0.6000206    -0.0000014     0.0003011
     0.6000034     0.3332602     0.0003558
     0.6001804     0.6667911     0.0004940
     0.8000070     0.0000478     0.0003068
     0.7999892     0.3333590     0.0002859
     0.8000521     0.6667397     0.0003469
     0.1000106     0.1666673     0.0002912
     0.0999246     0.5000706     0.0003578
     0.0999410     0.8334066     0.0003446
     0.2999898     0.1665986     0.0003333
     0.2999376     0.4999884     0.0005680
     0.2999154     0.8333897     0.0003526
     0.0000121     0.1111882     0.9693063
     0.0000365     0.4445210     0.9692589
    -0.0000086     0.7778374     0.9693451
     0.2000173     0.1111190     0.9692967
     0.2000703     0.4445228     0.9693195
     0.1999838     0.7778312     0.9693510
     0.3999906     0.1111027     0.9693129
     0.3999906     0.4444402     0.9696553
     0.3999898     0.7777253     0.9693171
     0.5999986     0.1111209     0.9693021
     0.5999437     0.4445261     0.9693246
     0.6000315     0.7778330     0.9693559
     0.7999834     0.1111849     0.9692975
     0.7999589     0.4445180     0.9692491
     0.8000036     0.7778342     0.9693365
     0.1000646     0.2778535     0.9692587
     0.0999921     0.6111707     0.9693563
     0.1000026     0.9444943     0.9693222
     0.2999975     0.2777869     0.9693424
     0.2999522     0.6111747     0.9696562
     0.2999992     0.9444120     0.9692599
     0.4999969     0.2777903     0.9693511
     0.5000437     0.6111778     0.9696618
     0.4999951     0.9444142     0.9692684
     0.6999518     0.2778524     0.9692526
     0.7000234     0.6111691     0.9693504
     0.7000135     0.9444921     0.9693167
     0.8999908     0.2778624     0.9692844
     0.8999908     0.6111656     0.9693195
     0.8999910     0.9445133     0.9693241
     0.0000329     0.0000433     0.8440035
     0.0000893     0.3334062     0.8439308
     0.0000062     0.6666998     0.8440294
     0.2000608    -0.0001328     0.8439800
     0.2002513     0.3335277     0.8439433
     0.2000063     0.6666682     0.8441769
     0.3999891    -0.0001503     0.8439434
     0.3999874     0.3333239     0.8441647
     0.3999899     0.6659070     0.8446011
     0.5999560    -0.0001329     0.8439863
     0.5997584     0.3335322     0.8439487
     0.6000073     0.6666680     0.8441806
     0.7999621     0.0000415     0.8439950
     0.7999048     0.3334051     0.8439219
     0.7999875     0.6666981     0.8440206
     0.1001258     0.1667187     0.8439783
     0.1002649     0.5001119     0.8439755
     0.1000034     0.8333150     0.8440207
     0.3000306     0.1666207     0.8439916
     0.3006125     0.5003481     0.8446058
     0.3000467     0.8330035     0.8439464
     0.4999610     0.1666225     0.8440008
     0.4993670     0.5003484     0.8446108
     0.4999437     0.8330021     0.8439540
     0.6998924     0.1667191     0.8439728
     0.6997508     0.5001124     0.8439690
     0.7000131     0.8333130     0.8440148
     0.8999896     0.1667188     0.8439795
     0.8999893     0.5000486     0.8439859
     0.8999894     0.8333655     0.8440089
     0.1003316     0.0554816     0.7193441
     0.1004014     0.3890824     0.7192752
     0.1001221     0.7221215     0.7193418
     0.3000578     0.0553866     0.7193046
     0.3017188     0.3903902     0.7192022
     0.3005329     0.7199455     0.7192041
     0.4999358     0.0553831     0.7193134
     0.4982575     0.3903849     0.7192007
     0.4994483     0.7199404     0.7192062
     0.6996859     0.0554840     0.7193409
     0.6996105     0.3890863     0.7192715
     0.6998891     0.7221189     0.7193368
     0.8999910     0.0555827     0.7193320
     0.8999905     0.3888965     0.7192987
     0.8999902     0.7221937     0.7193387
     0.0001494     0.2222621     0.7193193
     0.0004867     0.5557001     0.7193332
     0.0000751     0.8888803     0.7193388
     0.2005217     0.2227161     0.7193208
     0.2021078     0.5562831     0.7191911
     0.2002958     0.8881532     0.7193316
     0.3999872     0.2222870     0.7193274
     0.3999896     0.8883545     0.7192693
     0.5994825     0.2227176     0.7193279
     0.5978712     0.5562810     0.7191946
     0.5997132     0.8881472     0.7193379
     0.7998460     0.2222664     0.7193107
     0.7995124     0.5557021     0.7193245
     0.7999193     0.8888821     0.7193303
     0.2001427     0.3327846     0.5942688
     0.1996949     0.6668507     0.5939624
     0.3999912    -0.0002619     0.5940830
     0.3999879     0.3330044     0.5939659
     0.6001370     0.0000345     0.5940686
    -0.0000456     0.0000001     0.5940521
     0.5998716     0.3327780     0.5942731
     0.6003188     0.6668511     0.5939652
     0.8000390     0.0000018     0.5940439
     0.7998933     0.3334481     0.5940882
     0.8000801     0.6668327     0.5940403
     0.0999896     0.1665290     0.5940890
     0.0996287     0.5003676     0.5942504
     0.0998650     0.8333754     0.5940452
     0.3000435     0.1664361     0.5940475
     0.0001030     0.3334468     0.5940964
     0.2994798     0.8334560     0.5942534
     0.4999484     0.1664323     0.5940561
     0.5005251     0.8334496     0.5942600
     0.7000263     0.1665307     0.5940850
     0.7003867     0.5003655     0.5942456
     0.7001528     0.8333761     0.5940389
     0.8999897     0.1667622     0.5940563
     0.8999909     0.5000939     0.5940784
     0.8999895     0.8333884     0.5940379
    -0.0000911     0.6668328     0.5940487
     0.1998825     0.0000368     0.5940626
     0.0000265     0.1111896     0.4693740
     0.0000415     0.4445952     0.4694074
    -0.0000027     0.7778309     0.4693386
     0.2000308     0.1111103     0.4693649
     0.1998504     0.4443944     0.4687082
     0.2000016     0.7777710     0.4693176
     0.3999909     0.1110482     0.4693695
     0.3999904     0.4444871     0.4689875
     0.3999885     0.7779787     0.4687218
     0.5999848     0.1111122     0.4693703
     0.6001780     0.4443939     0.4687085
     0.6000150     0.7777720     0.4693212
     0.7999693     0.1111862     0.4693661
     0.7999574     0.4445917     0.4694004
     0.7999978     0.7778274     0.4693302
     0.1001145     0.2778403     0.4694155
     0.1000416     0.6111825     0.4693235
     0.1000079     0.9444687     0.4693546
     0.3000385     0.2778202     0.4693275
     0.2999597     0.6111479     0.4689579
     0.2999544     0.9443581     0.4694010
     0.4999543     0.2778239     0.4693358
     0.5000313     0.6111543     0.4689670
     0.5000421     0.9443599     0.4694084
     0.6999027     0.2778377     0.4694116
     0.6999749     0.6111794     0.4693179
     0.7000082     0.9444666     0.4693491
     0.8999916     0.2779165     0.4694028
     0.8999909     0.6111883     0.4693625
     0.8999908     0.9445054     0.4693490
     0.0000086     0.0000123     0.3440291
     0.0000346     0.3333605     0.3440537
     0.0000036     0.6666586     0.3440183
     0.2000276    -0.0000220     0.3440319
     0.2000311     0.3332394     0.3438415
     0.1999851     0.6666732     0.3439123
     0.3999899    -0.0000605     0.3440530
     0.3999892     0.3333121     0.3439279
     0.3999882     0.6666726     0.3438205
     0.5999905    -0.0000211     0.3440375
     0.5999880     0.3332395     0.3438471
     0.6000339     0.6666737     0.3439180
     0.7999860     0.0000109     0.3440205
     0.7999610     0.3333587     0.3440455
     0.7999910     0.6666570     0.3440097
     0.1000287     0.1666887     0.3440395
     0.0999402     0.5000575     0.3438520
     0.1000207     0.8333263     0.3440130
     0.3000018     0.1666571     0.3440184
     0.2999738     0.4999811     0.3438090
     0.2999088     0.8333456     0.3438493
     0.4999925     0.1666587     0.3440268
     0.5000203     0.4999827     0.3438176
     0.5000868     0.8333467     0.3438573
     0.6999897     0.1666877     0.3440340
     0.7000795     0.5000563     0.3438451
     0.6999983     0.8333254     0.3440069
     0.8999898     0.1666938     0.3440365
     0.8999900     0.4999891     0.3440437
     0.8999898     0.8333348     0.3440165
     0.1000230     0.0555155     0.2193342
     0.1000162     0.3888446     0.2192960
     0.0999993     0.7221785     0.2193202
     0.3000051     0.0555038     0.2193298
     0.3000006     0.3888338     0.2192791
     0.2999853     0.7221743     0.2192800
     0.4999900     0.0555005     0.2193381
     0.4999944     0.3888305     0.2192879
     0.5000098     0.7221707     0.2192887
     0.6999935     0.0555176     0.2193288
     0.7000005     0.3888465     0.2192904
     0.7000170     0.7221805     0.2193146
     0.8999909     0.0555151     0.2193341
     0.8999909     0.3888369     0.2193324
     0.8999910     0.7221738     0.2193313
     0.0000060     0.2221847     0.2193358
    -0.0000254     0.5555122     0.2192816
     0.0000047     0.8888428     0.2193353
     0.2000112     0.2221568     0.2192732
     0.2000008     0.5555185     0.2192792
     0.1999923     0.8888508     0.2192751
     0.3999909     0.2221661     0.2193237
     0.3999903     0.5555067     0.2192456
     0.3999908     0.8888312     0.2192983
     0.6000054     0.2221546     0.2192785
     0.6000157     0.5555162     0.2192845
     0.6000244     0.8888486     0.2192803
     0.7999895     0.2221879     0.2193273
     0.8000205     0.5555156     0.2192726
     0.7999909     0.8888462     0.2193267
     0.0000033     0.0000069     0.0940064
     0.1999742     0.6666866     0.0940446
     0.3999894    -0.0000156     0.0939782
     0.3999896     0.3332968     0.0940476
     0.3999897     0.6666828     0.0940583
     0.5999955    -0.0000048     0.0939821
     0.6000052     0.3333486     0.0939854
     0.6000438     0.6666855     0.0940500
     0.7999912     0.0000084     0.0939977
     0.7999839     0.3333385     0.0939660
     0.7999966     0.6666705     0.0939965
     0.0000109     0.3333370     0.0939749
     0.1000147     0.1666777     0.0939775
     0.1000256     0.4999952     0.0939844
     0.1000078     0.8333330     0.0940039
     0.2999999     0.1666614     0.0939919
     0.2999777     0.4999912     0.0940540
     0.3000087     0.8333192     0.0939784
     0.4999944     0.1666600     0.0940005
     0.5000165     0.4999900     0.0940625
     0.4999844     0.8333172     0.0939868
     0.7000040     0.1666787     0.0939713
     0.6999935     0.4999962     0.0939781
    -0.0000022     0.6666689     0.0940053
     0.7000103     0.8333339     0.0939979
     0.8999897     0.1666730     0.0939973
     0.8999896     0.4999794     0.0939589
     0.8999897     0.8333381     0.0940143
     0.2000226    -0.0000037     0.0939764
     0.2000134     0.3333492     0.0939797
     0.5001081     0.5000054     0.7518651
     0.3999909     0.6666530     0.7518815
     0.2998755     0.5000105     0.7518614
     0.3999699     0.6747317     0.5913449
     0.5070788     0.4961079     0.5914387
     0.2929707     0.4961225     0.5914502
