POSCAR
1.00000000
    17.549000000     0.000000000     0.000000000
     0.000000000    17.372000000     0.000000000
     0.000000000     0.000000000    16.000000000
B N 
55 56 
Direct
     0.071397353     0.083474899     0.373988033
     0.143133473     0.209007066     0.373894091
     0.072015147     0.334232747     0.374345368
     0.145879661     0.458924708     0.374640324
     0.072630828     0.583046163     0.374579054
     0.143935294     0.707414518     0.374840579
     0.071562565     0.832449357     0.374145049
     0.142737649     0.957875318     0.374006974
     0.213999565     0.083376477     0.373690517
     0.285797521     0.208247444     0.372389313
     0.215894609     0.334260891     0.373466081
     0.293182812     0.458909879     0.374206767
     0.218141413     0.582964867     0.375947294
     0.287590261     0.707634590     0.377707413
     0.214598158     0.832583995     0.374684271
     0.285313908     0.958308993     0.374054505
     0.356631904     0.083046668     0.372541132
     0.428208937     0.206704840     0.370059023
     0.358475503     0.332525013     0.370877133
     0.443254656     0.454612430     0.370605765
     0.364116985     0.582738718     0.382576669
     0.429888269     0.711877435     0.385260075
     0.357197140     0.834147483     0.376454731
     0.428250014     0.959136331     0.374620462
     0.500000352     0.082958786     0.372021047
     0.571791535     0.206704683     0.370059048
     0.500000090     0.328881585     0.368519355
     0.556745305     0.454612356     0.370605746
     0.570111912     0.711877562     0.385260026
     0.500000250     0.836099205     0.379918237
     0.571750571     0.959136429     0.374620459
     0.643368462     0.083046644     0.372541184
     0.714202563     0.208247248     0.372389292
     0.641524598     0.332524703     0.370877110
     0.706817140     0.458909678     0.374206759
     0.635882990     0.582738791     0.382576646
     0.712409764     0.707634827     0.377707323
     0.642803096     0.834147721     0.376454603
     0.714686084     0.958309165     0.374054488
     0.786000212     0.083376547     0.373690553
     0.856866248     0.209007007     0.373894095
     0.784105314     0.334260570     0.373466115
     0.854120320     0.458924513     0.374640322
     0.781858578     0.582964917     0.375947217
     0.856064631     0.707414701     0.374840522
     0.785401720     0.832584220     0.374684199
     0.857262019     0.957875460     0.374006996
     0.928602270     0.083474972     0.373988041
     0.999999806     0.209000289     0.374149098
     0.927984681     0.334232616     0.374345409
     1.000000008     0.458862790     0.374559584
     0.927369187     0.583046187     0.374579037
     0.999999937     0.707465351     0.374262563
     0.928437208     0.832449437     0.374145061
     0.999999856     0.957889771     0.374013169
     0.142784018     0.125431673     0.373907127
     0.071648535     0.250776207     0.374174963
     0.144254520     0.375662311     0.374303207
     0.072904105     0.499865150     0.374618987
     0.145167441     0.624059198     0.374896394
     0.071896407     0.748946873     0.374254670
     0.142989512     0.874296245     0.374084694
     0.071381736     0.999840680     0.373978106
     0.285422882     0.124930192     0.372997454
     0.214831932     0.250695643     0.373454025
     0.288332312     0.375558129     0.372629001
     0.219408783     0.499774886     0.375119942
     0.290646919     0.623994287     0.378665492
     0.215507168     0.749013930     0.375437856
     0.285580193     0.875013037     0.374722103
     0.213940777     0.999936544     0.373992964
     0.428245222     0.123935612     0.371236277
     0.357412475     0.249173073     0.370724789
     0.430432873     0.372408625     0.369204975
     0.369063281     0.499294272     0.375397402
     0.433077471     0.629305427     0.392883846
     0.357901472     0.750912478     0.378373500
     0.428263728     0.876319504     0.376824093
     0.356627096     1.000049155     0.373557229
     0.571754150     0.123935690     0.371236327
     0.499999721     0.246900367     0.368852161
     0.569566897     0.372408819     0.369204913
     0.566922559     0.629305396     0.392883847
     0.499999907     0.753881196     0.386254541
     0.571735858     0.876319334     0.376824020
     0.499999672     1.000131180     0.374040343
     0.714577104     0.124930259     0.372997453
     0.642587219     0.249173380     0.370724758
     0.711667622     0.375558527     0.372629044
     0.630936691     0.499294364     0.375397411
     0.709353085     0.623994181     0.378665428
     0.642098430     0.750912266     0.378373415
     0.714419815     0.875012808     0.374721989
     0.643372606     1.000049029     0.373557275
     0.857216381     0.125431652     0.373907158
     0.785168195     0.250695915     0.373454007
     0.855745563     0.375662637     0.374303274
     0.780591182     0.499775040     0.375119890
     0.854832535     0.624059082     0.374896343
     0.784492888     0.749013716     0.375437762
     0.857010749     0.874296156     0.374084708
     0.786059502     0.999936432     0.373992996
     1.000000221     0.125415576     0.374091970
     0.928351836     0.250776302     0.374174970
     1.000000066     0.375597273     0.374532114
     0.927095836     0.499865217     0.374618964
     0.999999984     0.624140113     0.374445750
     0.928103731     0.748946794     0.374254667
     1.000000144     0.874276530     0.374152495
     0.928618648     0.999840645     0.373978103
     0.500000016     0.591311435     0.415148884
