POSCAR
1.00000000
    17.549000000     0.000000000     0.000000000
     0.000000000    17.372000000     0.000000000
     0.000000000     0.000000000    16.000000000
B N 
55 56 
Direct
     0.071428571     0.083325000     0.375000000
     0.142857143     0.208325000     0.375000000
     0.071428571     0.333325000     0.375000000
     0.142857143     0.458325000     0.375000000
     0.071428571     0.583325000     0.375000000
     0.142857143     0.708325000     0.375000000
     0.071428571     0.833325000     0.375000000
     0.142857143     0.958325000     0.375000000
     0.214285714     0.083325000     0.375000000
     0.285714286     0.208325000     0.375000000
     0.214285714     0.333325000     0.375000000
     0.285714286     0.458325000     0.375000000
     0.214285714     0.583325000     0.375000000
     0.285714286     0.708325000     0.375000000
     0.214285714     0.833325000     0.375000000
     0.285714286     0.958325000     0.375000000
     0.357142857     0.083325000     0.375000000
     0.428571429     0.208325000     0.375000000
     0.357142857     0.333325000     0.375000000
     0.428571429     0.458325000     0.375000000
     0.357142857     0.583325000     0.375000000
     0.428571429     0.708325000     0.375000000
     0.357142857     0.833325000     0.375000000
     0.428571429     0.958325000     0.375000000
     0.500000000     0.083325000     0.375000000
     0.571428571     0.208325000     0.375000000
     0.500000000     0.333325000     0.375000000
     0.571428571     0.458325000     0.375000000
     0.571428571     0.708325000     0.375000000
     0.500000000     0.833325000     0.375000000
     0.571428571     0.958325000     0.375000000
     0.642857143     0.083325000     0.375000000
     0.714285714     0.208325000     0.375000000
     0.642857143     0.333325000     0.375000000
     0.714285714     0.458325000     0.375000000
     0.642857143     0.583325000     0.375000000
     0.714285714     0.708325000     0.375000000
     0.642857143     0.833325000     0.375000000
     0.714285714     0.958325000     0.375000000
     0.785714286     0.083325000     0.375000000
     0.857142857     0.208325000     0.375000000
     0.785714286     0.333325000     0.375000000
     0.857142857     0.458325000     0.375000000
     0.785714286     0.583325000     0.375000000
     0.857142857     0.708325000     0.375000000
     0.785714286     0.833325000     0.375000000
     0.857142857     0.958325000     0.375000000
     0.928571429     0.083325000     0.375000000
     1.000000000     0.208325000     0.375000000
     0.928571429     0.333325000     0.375000000
     1.000000000     0.458325000     0.375000000
     0.928571429     0.583325000     0.375000000
     1.000000000     0.708325000     0.375000000
     0.928571429     0.833325000     0.375000000
     1.000000000     0.958325000     0.375000000
     0.142857143     0.125000000     0.375000000
     0.071428571     0.250000000     0.375000000
     0.142857143     0.375000000     0.375000000
     0.071428571     0.500000000     0.375000000
     0.142857143     0.625000000     0.375000000
     0.071428571     0.750000000     0.375000000
     0.142857143     0.875000000     0.375000000
     0.071428571     1.000000000     0.375000000
     0.285714286     0.125000000     0.375000000
     0.214285714     0.250000000     0.375000000
     0.285714286     0.375000000     0.375000000
     0.214285714     0.500000000     0.375000000
     0.285714286     0.625000000     0.375000000
     0.214285714     0.750000000     0.375000000
     0.285714286     0.875000000     0.375000000
     0.214285714     1.000000000     0.375000000
     0.428571429     0.125000000     0.375000000
     0.357142857     0.250000000     0.375000000
     0.428571429     0.375000000     0.375000000
     0.357142857     0.500000000     0.375000000
     0.428571429     0.625000000     0.375000000
     0.357142857     0.750000000     0.375000000
     0.428571429     0.875000000     0.375000000
     0.357142857     1.000000000     0.375000000
     0.571428571     0.125000000     0.375000000
     0.500000000     0.250000000     0.375000000
     0.571428571     0.375000000     0.375000000
     0.571428571     0.625000000     0.375000000
     0.500000000     0.750000000     0.375000000
     0.571428571     0.875000000     0.375000000
     0.500000000     1.000000000     0.375000000
     0.714285714     0.125000000     0.375000000
     0.642857143     0.250000000     0.375000000
     0.714285714     0.375000000     0.375000000
     0.642857143     0.500000000     0.375000000
     0.714285714     0.625000000     0.375000000
     0.642857143     0.750000000     0.375000000
     0.714285714     0.875000000     0.375000000
     0.642857143     1.000000000     0.375000000
     0.857142857     0.125000000     0.375000000
     0.785714286     0.250000000     0.375000000
     0.857142857     0.375000000     0.375000000
     0.785714286     0.500000000     0.375000000
     0.857142857     0.625000000     0.375000000
     0.785714286     0.750000000     0.375000000
     0.857142857     0.875000000     0.375000000
     0.785714286     1.000000000     0.375000000
     1.000000000     0.125000000     0.375000000
     0.928571429     0.250000000     0.375000000
     1.000000000     0.375000000     0.375000000
     0.928571429     0.500000000     0.375000000
     1.000000000     0.625000000     0.375000000
     0.928571429     0.750000000     0.375000000
     1.000000000     0.875000000     0.375000000
     0.928571429     1.000000000     0.375000000
     0.500000000     0.583325000     0.395000000
