&CONTROL
calculation = 'relax'
restart_mode = 'from_scratch'
prefix = 'h-BN'
pseudo_dir = '/home/maruachi/ONCV_PP'
outdir = './out/'
wf_collect = .FALSE.
tprnfor = .TRUE.
tstress = .TRUE.
forc_conv_thr = 0.3D-3
nstep = 500
verbosity = 'high'
/
&SYSTEM
ibrav = 0, celldm(1) = 1.889726164
nat = 111 
ntyp = 2
ecutwfc = 85
nosym = .true.
occupations = 'fixed'
nbnd = 240
nspin = 2
tot_magnetization = 1.0
/
&ELECTRONS
electron_maxstep = 400
conv_thr = 1.0d-7
mixing_mode = 'plain'
mixing_beta = 0.7
diagonalization = 'david'
diago_full_acc = .True.
startingpot = 'atomic'
startingwfc = 'atomic+random'
/
&IONS
ion_dynamics = 'bfgs'
ion_positions = 'default'
/
ATOMIC_SPECIES
B   10.8110  B_ONCV_PBE-1.0.upf
N   14.5341  N_ONCV_PBE-1.0.upf
CELL_PARAMETERS alat
  17.549000000   0.000000000   0.000000000
   0.000000000  17.372000000   0.000000000
   0.000000000   0.000000000  16.000000000
K_POINTS gamma
ATOMIC_POSITIONS (crystal)
B        0.071428571   0.083325000   0.375000000
B        0.142857143   0.208325000   0.375000000
B        0.071428571   0.333325000   0.375000000
B        0.142857143   0.458325000   0.375000000
B        0.071428571   0.583325000   0.375000000
B        0.142857143   0.708325000   0.375000000
B        0.071428571   0.833325000   0.375000000
B        0.142857143   0.958325000   0.375000000
B        0.214285714   0.083325000   0.375000000
B        0.285714286   0.208325000   0.375000000
B        0.214285714   0.333325000   0.375000000
B        0.285714286   0.458325000   0.375000000
B        0.214285714   0.583325000   0.375000000
B        0.285714286   0.708325000   0.375000000
B        0.214285714   0.833325000   0.375000000
B        0.285714286   0.958325000   0.375000000
B        0.357142857   0.083325000   0.375000000
B        0.428571429   0.208325000   0.375000000
B        0.357142857   0.333325000   0.375000000
B        0.428571429   0.458325000   0.375000000
B        0.357142857   0.583325000   0.375000000
B        0.428571429   0.708325000   0.375000000
B        0.357142857   0.833325000   0.375000000
B        0.428571429   0.958325000   0.375000000
B        0.500000000   0.083325000   0.375000000
B        0.571428571   0.208325000   0.375000000
B        0.500000000   0.333325000   0.375000000
B        0.571428571   0.458325000   0.375000000
B        0.571428571   0.708325000   0.375000000
B        0.500000000   0.833325000   0.375000000
B        0.571428571   0.958325000   0.375000000
B        0.642857143   0.083325000   0.375000000
B        0.714285714   0.208325000   0.375000000
B        0.642857143   0.333325000   0.375000000
B        0.714285714   0.458325000   0.375000000
B        0.642857143   0.583325000   0.375000000
B        0.714285714   0.708325000   0.375000000
B        0.642857143   0.833325000   0.375000000
B        0.714285714   0.958325000   0.375000000
B        0.785714286   0.083325000   0.375000000
B        0.857142857   0.208325000   0.375000000
B        0.785714286   0.333325000   0.375000000
B        0.857142857   0.458325000   0.375000000
B        0.785714286   0.583325000   0.375000000
B        0.857142857   0.708325000   0.375000000
B        0.785714286   0.833325000   0.375000000
B        0.857142857   0.958325000   0.375000000
B        0.928571429   0.083325000   0.375000000
B        1.000000000   0.208325000   0.375000000
B        0.928571429   0.333325000   0.375000000
B        1.000000000   0.458325000   0.375000000
B        0.928571429   0.583325000   0.375000000
B        1.000000000   0.708325000   0.375000000
B        0.928571429   0.833325000   0.375000000
B        1.000000000   0.958325000   0.375000000
N        0.142857143   0.125000000   0.375000000
N        0.071428571   0.250000000   0.375000000
N        0.142857143   0.375000000   0.375000000
N        0.071428571   0.500000000   0.375000000
N        0.142857143   0.625000000   0.375000000
N        0.071428571   0.750000000   0.375000000
N        0.142857143   0.875000000   0.375000000
N        0.071428571   1.000000000   0.375000000
N        0.285714286   0.125000000   0.375000000
N        0.214285714   0.250000000   0.375000000
N        0.285714286   0.375000000   0.375000000
N        0.214285714   0.500000000   0.375000000
N        0.285714286   0.625000000   0.375000000
N        0.214285714   0.750000000   0.375000000
N        0.285714286   0.875000000   0.375000000
N        0.214285714   1.000000000   0.375000000
N        0.428571429   0.125000000   0.375000000
N        0.357142857   0.250000000   0.375000000
N        0.428571429   0.375000000   0.375000000
N        0.357142857   0.500000000   0.375000000
N        0.428571429   0.625000000   0.375000000
N        0.357142857   0.750000000   0.375000000
N        0.428571429   0.875000000   0.375000000
N        0.357142857   1.000000000   0.375000000
N        0.571428571   0.125000000   0.375000000
N        0.500000000   0.250000000   0.375000000
N        0.571428571   0.375000000   0.375000000
N        0.571428571   0.625000000   0.375000000
N        0.500000000   0.750000000   0.375000000
N        0.571428571   0.875000000   0.375000000
N        0.500000000   1.000000000   0.375000000
N        0.714285714   0.125000000   0.375000000
N        0.642857143   0.250000000   0.375000000
N        0.714285714   0.375000000   0.375000000
N        0.642857143   0.500000000   0.375000000
N        0.714285714   0.625000000   0.375000000
N        0.642857143   0.750000000   0.375000000
N        0.714285714   0.875000000   0.375000000
N        0.642857143   1.000000000   0.375000000
N        0.857142857   0.125000000   0.375000000
N        0.785714286   0.250000000   0.375000000
N        0.857142857   0.375000000   0.375000000
N        0.785714286   0.500000000   0.375000000
N        0.857142857   0.625000000   0.375000000
N        0.785714286   0.750000000   0.375000000
N        0.857142857   0.875000000   0.375000000
N        0.785714286   1.000000000   0.375000000
N        1.000000000   0.125000000   0.375000000
N        0.928571429   0.250000000   0.375000000
N        1.000000000   0.375000000   0.375000000
N        0.928571429   0.500000000   0.375000000
N        1.000000000   0.625000000   0.375000000
N        0.928571429   0.750000000   0.375000000
N        1.000000000   0.875000000   0.375000000
N        0.928571429   1.000000000   0.375000000
N        0.500000000   0.583325000   0.395000000
